(set-logic QF_S)
(declare-fun var0 () String)
(declare-fun var1 () Int)
(declare-fun var2 () String)
(declare-fun var3 () String)
(declare-fun var4 () String)
(declare-fun var5 () Int)
(declare-fun var6 () Int)
(declare-fun var7 () Int)
(assert (str.prefixof (str.substr var0 79 var1) (str.replace var2 var3 var4)))
(assert (str.contains (str.substr var0 var5 var6) (str.at var3 var7)))
(assert (< var5 112))
(assert (str.suffixof (str.at var2 var1) (str.substr var3 var1 var1)))
(check-sat)